NAME : rat99.1330697.tour
COMMENT : Cost = 0_1330697
COMMENT : Found by LKH [Keld Helsgaun] Thu Nov 16 19:18:32 2017
TYPE : TOUR
DIMENSION : 100
TOUR_SECTION
1
4
5
6
7
8
9
18
17
16
25
26
27
35
36
44
45
54
53
52
51
60
61
62
63
72
81
80
71
70
69
78
77
68
67
59
58
49
50
42
43
34
33
24
23
15
14
3
100
2
11
12
13
22
21
30
31
32
41
40
39
48
57
56
65
66
75
76
84
85
86
87
88
79
89
90
99
98
97
96
95
94
93
92
91
83
82
73
74
64
55
46
47
38
29
37
28
19
20
10
-1
EOF
